#=======================================================
# FHI-aims file: /tmp/tmptllvps0d/tar/input_files/geometry.in
# Created using the Atomic Simulation Environment (ASE)
# Sun May  1 18:17:30 2022
#=======================================================
lattice_vector 9.4643414799999999 0.0000201700000000 0.0000000000000000 
lattice_vector -0.0000212300000000 16.9436572000000005 0.0000000000000000 
lattice_vector -3.7668544000000002 -0.0000027400000000 15.9474721499999994 
atom_frac 0.0091015402295284 0.2803448211457180 0.4857176728162526 Bi
atom_frac 0.9909011435260145 0.7803435932746382 0.5142838540715056 Bi
atom_frac 0.8007092837237503 0.4045890766490667 0.5335447311002202 I
atom_frac 0.1992935449985888 0.9045899841706778 0.4664570045980610 I
atom_frac 0.5061651021940494 0.5431011692239340 0.3451093576608002 I
atom_frac 0.4938371506780707 0.0431035451850833 0.6548963836879942 I
atom_frac 0.8771075484525486 0.3016429671369167 0.3004445378510976 I
atom_frac 0.1228878479044944 0.8016411402690512 0.6995561356098684 I
atom_frac 0.1511580144728133 0.2671600589314040 0.6806287082934332 I
atom_frac 0.8488460072250663 0.7671609440885073 0.3193751819782924 I
atom_frac 0.5398320550835629 0.5128551766711286 0.6807202883248177 I
atom_frac 0.4601757737925385 0.0128550035284972 0.3192835781186801 I
atom_frac 0.2255716440030146 0.4138267775018675 0.4627563416061523 I
atom_frac 0.7744287709462958 0.9138285246837625 0.5372451533016159 I
atom_frac 0.7830955075753094 0.1535392876995588 0.5009306161415682 I
atom_frac 0.2169067200265319 0.6535384865108737 0.4990713904460401 I
atom_frac 0.2449697143619874 0.1683890089918538 0.4509652653633886 I
atom_frac 0.7550331351174729 0.6683874054853453 0.5490362859796560 I
atom_frac 0.4956195724196728 0.5470135122266275 0.5115265550095348 Ag
atom_frac 0.5043949230007279 0.0470183411630473 0.4884762479425305 Ag
atom_frac 0.6467287882189200 0.2611017965659816 0.6897218202698037 C
atom_frac 0.3532732765250394 0.7611019641404752 0.3102791566875381 C
atom_frac 0.6391808034959263 0.1967079817128214 0.6944973438940917 H
atom_frac 0.3608242708498570 0.6967081982309541 0.3055038236890729 H
atom_frac 0.7313115417125295 0.2750262273475876 0.6561097026276982 H
atom_frac 0.2686901988273246 0.7750260706868376 0.3438912611614123 H
atom_frac 0.5606884680541470 0.2864867218148149 0.8233096302977396 C
atom_frac 0.4393123264569312 0.7864886792684308 0.1766914821042657 C
atom_frac 0.6767379044594170 0.3022893843487366 0.7749662669892169 C
atom_frac 0.3232628067842702 0.8022901322853240 0.2250350341574354 C
atom_frac 0.6777786606691694 0.3662403716462873 0.7630550644981060 H
atom_frac 0.3222201426184718 0.8662409795480727 0.2369470907023970 H
atom_frac 0.5244123130016587 0.2094912578834175 0.8421057578081427 C
atom_frac 0.4755887095844865 0.7094935850098346 0.1578941487601218 C
atom_frac 0.5761430955977703 0.1587461835812148 0.8201513172104834 H
atom_frac 0.4238588336431469 0.6587480454663233 0.1798482005814320 H
atom_frac 0.8281086977963473 0.2790147595941322 0.8260057742129370 C
atom_frac 0.1718926062095973 0.7790145382352093 0.1739954548219732 C
atom_frac 0.8315226210072677 0.2164301942480439 0.8433866912255432 H
atom_frac 0.1684815815425404 0.7164303855750369 0.1566134122391303 H
atom_frac 0.8564859089929651 0.3137460876324271 0.8839437183152566 H
atom_frac 0.1435127978389869 0.8137465330298225 0.1160580004524416 H
atom_frac 0.9116336730522888 0.2894407358770765 0.7905358066419323 H
atom_frac 0.0883682272845641 0.7894390699518002 0.2094661554245135 H
atom_frac 0.3907843375869773 0.3366496578474442 0.9018921434517131 C
atom_frac 0.6092152621664541 0.8366532168124496 0.0981092191466846 C
atom_frac 0.3394995352168180 0.3865778055245521 0.9254167526481618 H
atom_frac 0.6604994392934721 0.8865819595364410 0.0745851893524078 H
atom_frac 0.4911904726737422 0.3495674646851402 0.8529963339675749 C
atom_frac 0.5088095473884114 0.8495700349807924 0.1470055196177283 C
atom_frac 0.5163905720900572 0.4097509951604345 0.8375748535168315 H
atom_frac 0.4836093461832932 0.9097531984212248 0.1624282215786782 H
atom_frac 0.5053440578356946 0.2880107888603681 0.6347231031220205 N
atom_frac 0.4946579100854034 0.7880121343348586 0.3652774599766271 N
atom_frac 0.4813017023291000 0.2581882603476107 0.5781932862632402 H
atom_frac 0.5187000224332226 0.7581913840640527 0.4218081409221962 H
atom_frac 0.5073296603400143 0.3481561622033348 0.6230949454895270 H
atom_frac 0.4926721591886113 0.8481577180113455 0.3769036323415056 H
atom_frac 0.4167891279800731 0.2778599000678035 0.6616831495767810 H
atom_frac 0.5832132653002094 0.7778598816068397 0.3383176781406074 H
atom_frac 0.4237319727830334 0.1963434135995397 0.8905774850342034 C
atom_frac 0.5762681325587046 0.6963467666524329 0.1094216960272290 C
atom_frac 0.3991255268935499 0.1361049101762277 0.9057024344764258 H
atom_frac 0.6008745670023082 0.6361085951815881 0.0942957721358993 H
atom_frac 0.3573794477380988 0.2598115308574644 0.9210947297374650 C
atom_frac 0.6426201537044365 0.7598155193172461 0.0789050714849500 C
atom_frac 0.2802354891102013 0.2499603591254706 0.9602046277911198 H
atom_frac 0.7197636292070247 0.7499652006300638 0.0397946811902725 H
atom_frac 0.9214985137978151 0.0374686329903068 0.2225421142999143 C
atom_frac 0.0784989106423952 0.5374682643434264 0.7774587692256919 C
atom_frac 0.8509645326929113 0.0911195751135584 0.1601782511970087 C
atom_frac 0.1490328608841466 0.5911181096796880 0.8398238826835011 C
atom_frac 0.7242545635299520 0.1344514539995322 0.1659942293738384 C
atom_frac 0.2757439478572564 0.6344501329632933 0.8340072592633435 C
atom_frac 0.6707824791903911 0.1221795271255328 0.2168451581211885 H
atom_frac 0.3292174063155098 0.6221789251928959 0.7831561888007436 H
atom_frac 0.9092108709702353 0.1065224734906991 0.0889437082352892 C
atom_frac 0.0907846902706461 0.6065200472289223 0.9110590771591346 C
atom_frac 1.0045633033873704 0.0742374014201220 0.0814318136307264 H
atom_frac -0.0045687648808688 0.5742347436677255 0.9185707384978880 H
atom_frac 0.6660961144646527 0.1910886321550608 0.1070112688674612 C
atom_frac 0.3339008549025463 0.6910878450735357 0.8929901244568093 C
atom_frac 0.5688094505862580 0.2232318164563780 0.1120645274179081 H
atom_frac 0.4311884475264802 0.7232307902143530 0.8879372628344737 H
atom_frac 0.8526889116376050 0.1650236620177913 0.0320633079142891 C
atom_frac 0.1473056644124310 0.6650211237158438 0.9679398894576531 C
atom_frac 0.9033934591278334 0.1768831916561300 -0.0199600593125977 H
atom_frac 0.0966013148566823 0.6768806291862670 1.0199638486278844 H
atom_frac 0.7317019626803516 0.2086413837379168 0.0409552933440928 C
atom_frac 0.2682926470593933 0.7086386288746102 0.9590482137948113 C
atom_frac 0.6867590472475439 0.2544812933071004 -0.0038181950987135 H
atom_frac 0.3132333345517050 0.7544790012958422 1.0038217016105591 H
atom_frac 0.5002039047789494 0.3347863257512970 0.3641935289411997 N
atom_frac 0.4998001593242153 0.8347881985678948 0.6358062597400429 N
atom_frac 0.5070288139314411 0.3902997410424012 0.3373147417598720 H
atom_frac 0.4929751627685411 0.8903019333069081 0.6626856006141387 H
atom_frac 0.5984649922675065 0.3267465511495839 0.4069342005403659 H
atom_frac 0.4015399112976374 0.8267494231373630 0.5930646845493942 H
atom_frac 0.4201486048167714 0.3413171069003076 0.3978875642682969 H
atom_frac 0.5798577806720084 0.8413181431727595 0.6021135738431121 H
atom_frac 0.3407506790355683 0.3556068297689329 0.1768338501221336 C
atom_frac 0.6592503388717098 0.8556067646597562 0.8231661737060942 C
atom_frac 0.4639640778583601 0.2691925695174234 0.3017685558397417 C
atom_frac 0.5360359574402717 0.7691939772782518 0.6982308572333829 C
atom_frac 0.5600430079686923 0.2596639845158746 0.2762374298926115 H
atom_frac 0.4399557810595986 0.7596662342293731 0.7237611335160726 H
atom_frac 0.4482798281317713 0.2161973928326039 0.3370414269699791 H
atom_frac 0.5517188665054334 0.7161992853781622 0.6629569671328757 H
atom_frac 0.4776409269097925 0.4476855888380767 0.1111934357571523 C
atom_frac 0.5223612434529646 0.9476865348351762 0.8888063378746832 C
atom_frac 0.5819633286764426 0.4688838667145850 0.1030739990977191 H
atom_frac 0.4180394257057961 0.9688852207021491 0.8969265596115181 H
atom_frac 0.3501994501691405 0.4836908936627447 0.0680679226017648 C
atom_frac 0.6498032339618830 0.9836911240721966 0.9319318228124324 C
atom_frac 0.3539041587395191 0.5335461599535490 0.0265971475610948 H
atom_frac 0.6460995732062836 0.0335462821624653 0.9734028022742151 H
atom_frac 0.4732219469606901 0.3839056809878369 0.1644807061161728 C
atom_frac 0.5267795500513276 0.8839065154232887 0.8355190662615454 C
atom_frac 0.5758335814214037 0.3571878876522468 0.1966916499678603 H
atom_frac 0.4241673881600406 0.8571887570771375 0.8033085080509139 H
atom_frac 0.2133257439372118 0.3920655116878484 0.1323947996360038 C
atom_frac 0.7866758773301367 0.8920646694850762 0.8676054292403953 C
atom_frac 0.1089784653720994 0.3707277952830163 0.1408331576863735 H
atom_frac 0.8910229049933241 0.8707259694906717 0.8591677352451121 H
atom_frac 0.2172654531291504 0.4549101083264432 0.0783001122845667 C
atom_frac 0.7827369486648420 0.9549095137296340 0.9216999516754134 C
atom_frac 0.1163601686096132 0.4821189162029246 0.0448038249121507 H
atom_frac 0.8836427125483513 0.9821178307457756 0.9551961863749047 H
atom_frac 0.3268388790745367 0.2870759230647456 0.2347163553441289 C
atom_frac 0.6731608109268830 0.7870757370624001 0.7652832840971602 C
atom_frac 0.2409047373269958 0.3028021213601159 0.2674478657108049 H
atom_frac 0.7590965773956054 0.8028013129430239 0.7325527318760673 H
atom_frac 0.2759810807331894 0.2112166699817771 0.1852683066137225 C
atom_frac 0.7240157203261520 0.7112157491574512 0.8147307007524700 C
atom_frac 0.1758908950452020 0.2223539201150554 0.1376733710113424 H
atom_frac 0.8241054624038695 0.7223515446575183 0.8623265173722219 H
atom_frac 0.2532590708724274 0.1646879047932769 0.2270215257908445 H
atom_frac 0.7467377258553509 0.6646873519287873 0.7729770288390188 H
atom_frac 0.3588802027781580 0.1891792123125351 0.1537968266650963 H
atom_frac 0.6411151851763798 0.6891785067097553 0.8462011962190509 H
atom_frac 0.8261797071836243 -0.0216772358039951 0.3399774578066907 N
atom_frac 0.1738226460808357 0.4783245456867656 0.6600237467729329 N
atom_frac 0.8556245838468806 0.9228682911045687 0.3223260866456506 H
atom_frac 0.1443787914972854 0.4228695564443029 0.6776746501482368 H
atom_frac 0.7134665681015815 0.9843511365035978 0.3182365124870276 H
atom_frac 0.2865356636896568 0.4843536877394037 0.6817651949936153 H
atom_frac 0.8428289213916323 -0.0230699497699085 0.4048674435214486 H
atom_frac 0.1571743316001598 0.4769328684518442 0.5951339454134116 H
atom_frac 0.8454677587838553 0.5362106978478451 0.2716756787062330 C
atom_frac 0.1545318566230555 0.0362087854734664 0.7283205482820047 C
atom_frac 0.7586361672774735 0.4921264007819104 0.2575218963464376 H
atom_frac 0.2413617321798623 -0.0078765299790091 0.7424730965904210 H
atom_frac 0.7976964013631281 0.5943227925730206 0.2529344464163243 H
atom_frac 0.2023051959109245 0.0943202502029601 0.7470631343914904 H
atom_frac 0.9663011949531402 0.5165073731274493 0.2269485744171687 C
atom_frac 0.0336993995500849 0.0165058591031363 0.7730481498285607 C
atom_frac 1.0055628851355987 0.4566521667167829 0.2462371574042849 H
atom_frac -0.0055626302474338 0.9566506289739926 0.7537596590190628 H
atom_frac 0.8949880750729502 0.5136486770448230 0.1339381257361218 C
atom_frac 0.1050123464691784 0.0136471218800540 0.8660588625012899 C
atom_frac 0.0944236669040503 0.5736614287690869 0.2490697035015672 C
atom_frac 0.9055767717158706 0.0736599576658718 0.7509272007099884 C
atom_frac 0.0592592667583707 0.6354985723285470 0.2430232543155750 H
atom_frac 0.9407404748013367 0.1354971735011915 0.7569739013464902 H
atom_frac 0.1700324057040007 0.5632620419166714 0.2085991728789443 H
atom_frac 0.8299681046836138 0.0632604552441630 0.7913977049961488 H
atom_frac 0.1566206640374525 0.5649920827265844 0.3136759420520449 H
atom_frac 0.8433796733182293 0.0649911017765024 0.6863209408395173 H
atom_frac 0.8692855314524081 0.5827610288554596 0.0861078042390562 C
atom_frac 0.1307111724346227 0.0827590679545967 0.9138899778545779 C
atom_frac 0.9037025894694150 0.6395129770575360 0.1152903590428907 H
atom_frac 0.0962924359578206 0.1395110774479557 0.8847077535106402 H
atom_frac 0.8478187482767122 0.4418822430381119 0.0946383236041582 C
atom_frac 0.1521830751495390 0.9418806171992505 0.9053580846040230 C
atom_frac 0.8638641009521744 0.3873813125168860 0.1310624455299644 H
atom_frac 0.1361402798480409 0.8873799261548253 0.8689336196771474 H
atom_frac 0.7977919491784271 0.5802471595931042 0.0017820673855198 C
atom_frac 0.2022018313984055 0.0802447258376774 0.9982162508432409 C
atom_frac 0.7774258712114888 0.6347458620665976 0.9659323850896332 H
atom_frac 0.2225648860173824 0.1347431783622418 0.0340664354130883 H
atom_frac 0.7524209298396983 0.5084404524272329 0.9630912765067910 C
atom_frac 0.2475737849534326 0.0084379001459587 0.0369066410315067 C
atom_frac 0.6969572822602096 0.5069557191084039 0.8970002433896710 H
atom_frac 0.3030356373596951 0.0069527899788716 0.1029979563250092 H
atom_frac 0.7785609829141236 0.4391372603754903 0.0098994435303027 C
atom_frac 0.2214379747770665 0.9391351500231724 0.9900975020671223 C
atom_frac 0.7417248214223464 0.3827500226579008 0.9809479385107439 H
atom_frac 0.2582749148539084 0.8827478528536549 0.0190486866597224 H
atom_frac 0.8940244105606945 0.5381442932438508 0.3654497976345423 N
atom_frac 0.1059736514008416 0.0381444338456398 0.6345464042713502 N
atom_frac 0.9430710775362278 0.4857860730709505 0.3891941494940939 H
atom_frac 0.0569259468757910 0.9857870864737988 0.6108011507014922 H
atom_frac 0.8026824778177180 0.5461161152680142 0.3900009105831860 H
atom_frac 0.1973152228589233 0.0461165639929993 0.6099953609262143 H
atom_frac 0.9670989103896518 0.5830907654141857 0.3876089778905806 H
atom_frac 0.0328992695044556 0.0830921292698816 0.6123887684607118 H
atom_frac 0.9065810152653090 0.0456171501746070 0.3104885177680025 C
atom_frac 0.0934173177891196 0.5456178277165443 0.6895128046986431 C
atom_frac 1.0148028124885156 0.0465085424391806 0.3534795092901291 H
atom_frac -0.0148056047093145 0.5465072676339325 0.6465215190860202 H
atom_frac 0.8505455738206887 0.0997262890302865 0.3214093137638745 H
atom_frac 0.1494490963261993 0.5997287790356723 0.6785924269508756 H
atom_frac 1.0319023151659883 0.9797498338188384 0.2078295844523547 C
atom_frac -0.0319043125027002 0.4797487990996787 0.7921703070665027 C
atom_frac 1.0105232133265545 0.9590123930802722 0.1427580276413902 H
atom_frac -0.0105265485678675 0.4590123158986040 0.8572421792879570 H
atom_frac 1.0375831400468922 0.9277087294372776 0.2485710639726686 H
atom_frac -0.0375818714353253 0.4277073592437524 0.7514295787624248 H
atom_frac 0.1429175963226331 1.0048673140230049 0.2237001705627685 H
atom_frac 0.8570799965562326 0.5048653492442993 0.7762982542659590 H
